language ESSENCE' 1.0

letting jobs = 102
letting horizon = 828
letting resourcesRenew = 2
letting resourcesNonrenew = 2
letting resourceLimits = [29, 32, 396, 370]
letting successors = [[2, 3, 4, 6, 7, 9, 11, 12, 13], [21, 19, 16, 14, 8, 5], [31, 22, 21, 19, 16, 14, 10], [30, 24, 22, 21, 20, 18, 16], [31, 28, 24, 20, 17, 15], [31, 28, 22, 20, 17, 16], [25, 24, 20, 19, 14], [31, 28, 17, 15], [10], [32, 30, 29, 28, 25, 24, 23, 20], [28, 25, 24, 23, 17], [33, 31, 29, 23, 19], [33, 32, 31, 29, 28, 26, 25, 23], [28, 23, 17], [33, 26, 25, 23, 22], [32, 29, 26, 25, 23], [39, 36, 34, 33, 32, 30, 29, 26], [36, 34, 32, 31, 29, 28, 26], [40, 39, 36, 34, 32, 30, 28, 26], [40, 39, 37, 36, 34, 26], [39, 38, 29, 27], [50, 42, 41, 39, 36, 35, 29], [39, 38, 37, 34, 27], [50, 47, 45, 40, 39, 37, 33], [39, 38, 36, 27], [45, 43, 27], [50, 47, 44, 42, 41, 35], [47, 45, 42, 37, 35], [54, 53, 47, 44, 40, 37], [49, 47, 45, 42, 35], [51, 50, 42, 41, 39], [64, 54, 53, 52, 51, 48, 46, 45, 41], [64, 54, 52, 51, 49, 42, 41], [64, 58, 55, 54, 52, 51, 50, 48, 46, 45], [72, 64, 58, 54, 53, 52, 51, 48, 46], [64, 58, 53, 52, 45, 44], [72, 66, 58, 57, 49, 46], [72, 63, 54, 48, 45], [64, 55, 54, 44], [72, 65, 61, 52, 51, 48], [73, 72, 69, 67, 66, 65, 61, 58, 57, 56, 55], [72, 67, 55, 53, 48], [72, 67, 61, 52, 48], [73, 72, 69, 67, 66, 65, 63, 61, 59, 56], [69, 65, 61, 60, 59, 57, 56], [77, 69, 67, 61, 60, 59, 56], [73, 68, 67, 66, 64, 63, 61], [71, 70, 69, 66, 57, 56], [77, 69, 67, 61, 59, 55], [82, 72, 68, 67, 66, 63], [82, 78, 77, 71, 70, 69, 67, 62], [82, 78, 77, 76, 62, 60], [82, 78, 77, 76, 62, 60], [82, 78, 71, 67, 62], [82, 79, 78, 76, 74, 70, 68], [82, 78, 74, 62], [77, 76, 74, 62], [79, 74, 68, 63], [87, 85, 84, 82, 81, 79, 78, 76, 74], [87, 79, 75, 74, 73, 68], [87, 85, 82, 81, 78, 70], [87, 79, 75, 68], [87, 81, 77, 71], [86, 82, 79, 69], [101, 90, 87, 85, 84, 82, 79, 74], [86, 85, 84, 83, 78, 76], [87, 79, 75, 74], [101, 92, 85, 84, 83, 81, 80], [92, 88, 87, 84, 75], [92, 88, 84, 75], [92, 88, 84, 75], [79, 75], [101, 92, 88, 86, 83, 80], [100, 99, 96, 92, 88, 86, 83], [101, 83, 80], [98, 97, 92, 80], [100, 99, 97, 96, 92, 90, 89], [101, 100, 98, 97, 95, 90, 89], [100, 99, 98, 92, 89, 88], [100, 99, 96, 95, 90, 89], [100, 99, 96, 94, 86], [100, 98, 96, 92, 89], [98, 97, 89], [96, 95, 89], [99, 96, 88], [98, 97, 95, 93], [99, 91], [95, 94, 93], [91], [91], [94, 93], [95], [102], [102], [102], [102], [102], [102], [102], [102], [102], []]
letting durations = [[0], [4, 7, 8], [2, 8, 9], [1, 4, 10], [2, 5, 8], [4, 4, 9], [4, 8, 9], [4, 6, 8], [4, 8, 9], [3, 4, 7], [2, 3, 9], [3, 5, 8], [2, 3, 10], [4, 7, 7], [5, 6, 10], [2, 8, 9], [8, 9, 10], [2, 8, 9], [3, 7, 8], [1, 7, 7], [2, 6, 10], [4, 5, 10], [1, 2, 5], [1, 5, 8], [3, 5, 10], [4, 9, 10], [7, 8, 9], [1, 5, 7], [6, 9, 10], [1, 1, 9], [1, 5, 8], [1, 5, 6], [3, 7, 8], [2, 7, 8], [2, 10, 10], [1, 3, 9], [1, 5, 10], [4, 5, 9], [3, 7, 10], [1, 6, 7], [3, 5, 7], [2, 4, 9], [1, 4, 5], [1, 3, 8], [3, 3, 6], [1, 8, 9], [3, 4, 9], [6, 7, 9], [1, 2, 8], [2, 3, 9], [2, 6, 10], [1, 1, 2], [4, 7, 8], [2, 4, 6], [4, 7, 8], [1, 3, 9], [1, 2, 5], [1, 4, 6], [1, 2, 3], [4, 7, 8], [3, 4, 10], [3, 7, 8], [6, 7, 7], [3, 4, 10], [2, 7, 9], [5, 8, 10], [3, 4, 9], [1, 4, 10], [2, 5, 7], [1, 4, 8], [2, 8, 10], [1, 4, 6], [8, 9, 10], [3, 4, 6], [6, 7, 9], [2, 7, 10], [4, 6, 9], [1, 2, 10], [4, 10, 10], [3, 4, 5], [5, 8, 9], [3, 3, 10], [2, 7, 8], [4, 6, 10], [1, 2, 9], [4, 4, 5], [6, 7, 9], [4, 4, 7], [1, 6, 10], [9, 10, 10], [1, 3, 10], [2, 10, 10], [2, 2, 3], [4, 8, 9], [1, 2, 10], [2, 3, 6], [2, 3, 6], [1, 7, 10], [6, 7, 8], [3, 4, 6], [6, 8, 9], [0]]
letting resourceUsage = [[[0, 0, 0, 0]], [[5, 3, 6, 0], [4, 2, 6, 0], [3, 2, 5, 0]], [[3, 4, 7, 0], [2, 2, 4, 0], [1, 2, 0, 9]], [[1, 3, 10, 0], [1, 2, 5, 0], [1, 2, 3, 0]], [[3, 4, 0, 6], [2, 3, 6, 0], [2, 3, 0, 4]], [[5, 4, 0, 7], [5, 3, 9, 0], [5, 1, 9, 0]], [[4, 4, 4, 0], [2, 3, 0, 6], [2, 1, 0, 4]], [[4, 2, 10, 0], [2, 1, 9, 0], [2, 1, 8, 0]], [[3, 5, 10, 0], [2, 3, 10, 0], [2, 3, 9, 0]], [[1, 3, 0, 7], [1, 3, 0, 6], [1, 1, 3, 0]], [[4, 2, 0, 2], [4, 2, 6, 0], [3, 2, 0, 1]], [[4, 4, 10, 0], [4, 3, 8, 0], [2, 3, 6, 0]], [[2, 2, 8, 0], [1, 1, 7, 0], [1, 1, 0, 2]], [[3, 4, 9, 0], [2, 3, 9, 0], [1, 3, 0, 9]], [[3, 4, 0, 7], [2, 2, 6, 0], [1, 2, 6, 0]], [[5, 3, 0, 6], [2, 1, 0, 4], [2, 1, 0, 3]], [[4, 3, 0, 5], [4, 3, 3, 0], [3, 2, 2, 0]], [[2, 3, 5, 0], [1, 2, 3, 0], [1, 2, 0, 5]], [[3, 1, 8, 0], [1, 1, 8, 0], [1, 1, 7, 0]], [[2, 3, 0, 5], [1, 3, 8, 0], [1, 3, 0, 3]], [[4, 5, 0, 6], [3, 4, 5, 0], [3, 4, 1, 0]], [[2, 5, 3, 0], [2, 4, 3, 0], [2, 4, 2, 0]], [[4, 3, 0, 10], [2, 1, 6, 0], [1, 1, 5, 0]], [[2, 3, 0, 10], [2, 2, 5, 0], [2, 1, 0, 10]], [[5, 4, 10, 0], [4, 2, 8, 0], [3, 2, 0, 3]], [[5, 3, 7, 0], [4, 2, 0, 2], [2, 2, 0, 2]], [[5, 4, 8, 0], [4, 4, 0, 3], [3, 4, 6, 0]], [[4, 3, 0, 6], [4, 1, 5, 0], [4, 1, 0, 6]], [[5, 2, 4, 0], [2, 2, 0, 5], [2, 2, 0, 4]], [[4, 3, 6, 0], [4, 3, 0, 2], [4, 3, 0, 1]], [[1, 1, 0, 8], [1, 1, 0, 7], [1, 1, 6, 0]], [[3, 3, 0, 4], [3, 2, 0, 4], [3, 1, 0, 4]], [[3, 4, 0, 3], [3, 3, 4, 0], [3, 3, 0, 1]], [[3, 3, 0, 3], [3, 3, 4, 0], [2, 3, 0, 3]], [[4, 5, 0, 4], [4, 4, 0, 3], [3, 4, 1, 0]], [[1, 3, 7, 0], [1, 2, 4, 0], [1, 2, 3, 0]], [[4, 3, 0, 8], [3, 2, 0, 7], [3, 2, 1, 0]], [[4, 3, 0, 2], [2, 2, 9, 0], [2, 1, 9, 0]], [[4, 2, 0, 4], [3, 2, 0, 4], [3, 2, 0, 3]], [[3, 3, 0, 9], [3, 3, 0, 3], [3, 2, 0, 3]], [[3, 5, 3, 0], [3, 4, 0, 5], [3, 4, 2, 0]], [[1, 3, 0, 9], [1, 2, 7, 0], [1, 2, 6, 0]], [[2, 4, 10, 0], [2, 4, 0, 4], [2, 4, 0, 3]], [[4, 5, 4, 0], [2, 3, 3, 0], [2, 3, 0, 5]], [[1, 3, 0, 5], [1, 2, 5, 0], [1, 2, 4, 0]], [[3, 5, 9, 0], [3, 5, 7, 0], [3, 5, 0, 2]], [[3, 1, 0, 6], [2, 1, 0, 4], [2, 1, 3, 0]], [[5, 4, 0, 5], [3, 3, 0, 4], [2, 3, 0, 4]], [[2, 5, 9, 0], [2, 4, 7, 0], [1, 3, 7, 0]], [[4, 5, 7, 0], [2, 3, 6, 0], [1, 3, 0, 3]], [[3, 4, 5, 0], [3, 4, 4, 0], [3, 4, 0, 6]], [[2, 1, 2, 0], [2, 1, 0, 2], [2, 1, 1, 0]], [[2, 4, 8, 0], [2, 4, 0, 9], [1, 2, 8, 0]], [[5, 3, 9, 0], [4, 3, 0, 6], [4, 3, 0, 5]], [[2, 5, 4, 0], [2, 4, 4, 0], [2, 3, 0, 2]], [[3, 5, 5, 0], [3, 4, 0, 8], [3, 3, 4, 0]], [[5, 3, 2, 0], [5, 2, 2, 0], [5, 1, 2, 0]], [[2, 5, 0, 6], [2, 5, 5, 0], [1, 5, 5, 0]], [[4, 4, 9, 0], [3, 4, 0, 4], [3, 2, 6, 0]], [[4, 4, 0, 7], [2, 4, 0, 5], [2, 2, 0, 3]], [[3, 1, 4, 0], [3, 1, 3, 0], [2, 1, 0, 2]], [[3, 3, 0, 5], [2, 1, 0, 5], [1, 1, 0, 2]], [[4, 4, 6, 0], [4, 3, 6, 0], [3, 3, 0, 3]], [[3, 3, 7, 0], [3, 3, 0, 5], [3, 1, 0, 4]], [[3, 3, 4, 0], [3, 3, 0, 7], [2, 2, 2, 0]], [[3, 2, 9, 0], [3, 2, 0, 2], [3, 2, 8, 0]], [[4, 3, 0, 4], [2, 3, 0, 4], [1, 3, 0, 4]], [[4, 2, 0, 8], [3, 1, 3, 0], [2, 1, 0, 7]], [[4, 5, 5, 0], [3, 3, 3, 0], [3, 2, 3, 0]], [[5, 5, 0, 3], [5, 3, 0, 2], [5, 2, 7, 0]], [[4, 3, 6, 0], [2, 1, 0, 8], [2, 1, 0, 6]], [[5, 5, 0, 9], [4, 3, 5, 0], [4, 3, 0, 1]], [[5, 2, 4, 0], [4, 1, 0, 4], [4, 1, 2, 0]], [[3, 3, 2, 0], [2, 3, 2, 0], [2, 2, 0, 8]], [[4, 4, 0, 9], [3, 4, 6, 0], [2, 4, 4, 0]], [[2, 3, 0, 8], [2, 3, 0, 7], [2, 2, 0, 7]], [[2, 5, 8, 0], [2, 4, 0, 3], [2, 3, 0, 2]], [[3, 5, 8, 0], [2, 4, 4, 0], [2, 3, 0, 6]], [[5, 3, 0, 5], [3, 2, 6, 0], [2, 2, 0, 3]], [[2, 4, 7, 0], [2, 3, 3, 0], [2, 3, 2, 0]], [[4, 4, 7, 0], [4, 3, 0, 4], [4, 2, 0, 2]], [[4, 1, 0, 6], [4, 1, 8, 0], [3, 1, 0, 3]], [[4, 4, 0, 9], [4, 2, 0, 5], [3, 2, 0, 4]], [[3, 4, 5, 0], [3, 4, 0, 8], [2, 2, 5, 0]], [[3, 5, 0, 7], [3, 3, 0, 7], [3, 3, 0, 6]], [[4, 4, 7, 0], [3, 4, 0, 3], [2, 4, 5, 0]], [[1, 5, 0, 7], [1, 4, 0, 7], [1, 4, 1, 0]], [[5, 3, 4, 0], [4, 3, 0, 3], [2, 3, 0, 3]], [[1, 5, 0, 4], [1, 5, 1, 0], [1, 5, 0, 3]], [[5, 4, 8, 0], [4, 2, 0, 8], [4, 2, 6, 0]], [[5, 3, 0, 7], [3, 2, 1, 0], [2, 2, 0, 7]], [[3, 3, 0, 4], [2, 3, 0, 3], [1, 3, 6, 0]], [[5, 4, 8, 0], [5, 4, 0, 2], [5, 3, 0, 2]], [[3, 5, 0, 6], [1, 4, 0, 6], [1, 3, 0, 4]], [[2, 1, 0, 9], [1, 1, 0, 4], [1, 1, 4, 0]], [[4, 1, 4, 0], [2, 1, 0, 3], [2, 1, 2, 0]], [[2, 4, 0, 6], [1, 3, 0, 4], [1, 3, 8, 0]], [[1, 5, 9, 0], [1, 4, 8, 0], [1, 3, 0, 7]], [[3, 1, 0, 5], [2, 1, 0, 4], [2, 1, 0, 2]], [[3, 2, 0, 8], [2, 2, 0, 8], [2, 2, 4, 0]], [[5, 3, 0, 2], [5, 2, 0, 2], [5, 2, 2, 0]], [[0, 0, 0, 0]]]
